Li6 O6
1.0
2.875500 0.000000 0.000000
-1.437750 2.490256 0.000000
0.000000 0.000000 14.180600
Li O
6 6
direct
0.000000 0.000000 0.000000 Li
0.666667 0.333333 0.333333 Li
0.333333 0.666667 0.666667 Li
0.000000 0.000000 0.500000 Li
0.666667 0.333333 0.833333 Li
0.333333 0.666667 0.166667 Li
0.000000 0.000000 0.258500 O
0.000000 0.000000 0.741500 O
0.666667 0.333333 0.591833 O
0.666667 0.333333 0.074833 O
0.333333 0.666667 0.925167 O
0.333333 0.666667 0.408167 O
