TiN_H_BridgeMM_1
0
Monkhorst-Pack
3 3 2
0 0 0
