Ti20 N20 O2
1.0
5.936600 0.000000 0.000000
0.000000 5.936600 0.000000
0.000000 0.000000 28.478400
Ti N O
20 20 2
direct
0.750000 0.000000 0.003180 Ti
0.750000 0.000000 0.149000 Ti
0.750000 0.000000 0.294820 Ti
0.250000 0.000000 0.003180 Ti
0.250000 0.000000 0.149000 Ti
0.250000 0.000000 0.294820 Ti
0.000000 0.250000 0.074490 Ti
0.000000 0.250000 0.223510 Ti
0.000000 0.750000 0.074490 Ti
0.000000 0.750000 0.223510 Ti
0.500000 0.250000 0.074490 Ti
0.500000 0.250000 0.223510 Ti
0.500000 0.750000 0.074490 Ti
0.500000 0.750000 0.223510 Ti
0.750000 0.500000 0.003180 Ti
0.750000 0.500000 0.149000 Ti
0.750000 0.500000 0.294820 Ti
0.250000 0.500000 0.003180 Ti
0.250000 0.500000 0.149000 Ti
0.250000 0.500000 0.294820 Ti
0.750000 0.000000 0.074460 N
0.750000 0.000000 0.223540 N
0.250000 0.000000 0.074460 N
0.250000 0.000000 0.223540 N
0.000000 0.250000 0.996750 N
0.000000 0.250000 0.149000 N
0.000000 0.250000 0.301250 N
0.000000 0.750000 0.996750 N
0.000000 0.750000 0.149000 N
0.000000 0.750000 0.301250 N
0.500000 0.250000 0.996750 N
0.500000 0.250000 0.149000 N
0.500000 0.250000 0.301250 N
0.500000 0.750000 0.996750 N
0.500000 0.750000 0.149000 N
0.500000 0.750000 0.301250 N
0.750000 0.500000 0.074460 N
0.750000 0.500000 0.223540 N
0.250000 0.500000 0.074460 N
0.250000 0.500000 0.223540 N
0.909728 0.500000 0.346128 O
0.090272 0.500000 0.346128 O
