ALGO = FAST
BMIX = 3.0
EDIFF = 0.0001
EDIFFG = -0.04
ENCUT = 500
GGA = PE
IBRION = 2
ICHARG = 2
INIWAV = 1
ISIF = 3
ISMEAR = 0
ISPIN = 2
ISTART = 0
ISYM = 2
IWAVPR = 1
KBLOCK = 10
LCHARG = .TRUE.
LDAU = .TRUE.
LDAUJ = 0 0 0 
LDAUL = 0 2 0 
LDAUTYPE = 2
LDAUU = 0 3.4 0 
LDIAG = T
LMAXMIX = 4
LORBIT = 11
LPETIM = F
LPLANE = T
LREAL = auto
LVDW = .FALSE.
LWAVE = .FALSE.
MAGMOM = 3*0.6 3*5 6*0.6 
NBLOCK = 1
NELM = 100
NPAR = 8
NSW = 200
NWRITE = 2
POTIM = 0.5
PREC = Medium
SIGMA = 0.05
SMASS = 3.0
VDW_D = 20.0
VDW_RADIUS = 30.0
VDW_SCALING = 0.75
