Li3 Co3 O6
1.0
2.814000 0.000000 0.000000
-1.407000 2.436995 0.000000
0.000000 0.000000 14.048000
Li Co O
3 3 6
direct
0.000000 0.000000 0.500000 Li
0.666670 0.333330 0.833330 Li
0.333330 0.666670 0.166670 Li
0.000000 0.000000 0.000000 Co
0.666670 0.333330 0.333330 Co
0.333330 0.666670 0.666670 Co
0.000000 0.000000 0.226800 O
0.666670 0.333330 0.560130 O
0.333330 0.666670 0.893470 O
0.000000 0.000000 0.773200 O
0.666670 0.333330 0.106530 O
0.333330 0.666670 0.439870 O
