Ti5 N5 O2
1.0
2.968300 0.000000 0.000000
0.000000 2.968300 0.000000
0.000000 0.000000 28.478400
Ti N O
5 5 2
direct
0.000000 0.000000 0.003180 Ti
0.000000 0.000000 0.149000 Ti
0.000000 0.000000 0.294820 Ti
0.500000 0.500000 0.074490 Ti
0.500000 0.500000 0.223510 Ti
0.000000 0.000000 0.074460 N
0.000000 0.000000 0.223540 N
0.500000 0.500000 0.996750 N
0.500000 0.500000 0.149000 N
0.500000 0.500000 0.301250 N
0.000000 0.683145 0.341293 O
0.000000 0.316855 0.341293 O
